p cnf 34 89
a 9 18 0
e 1 2 3 4 5 6 7 8 10 11 12 13 14 15 16 17 19 20 21 22 23 24 25 26 27 28 29 30 31 32 33 34 0
2 -3 -4 0
-2 3 -4 0
2 3 4 0
-2 -3 4 0
5 1 0
5 -4 0
-1 4 -5 0
-5 6 -7 0
5 -6 -7 0
-5 -6 7 0
5 6 7 0
8 -7 0
8 7 0
-10 -2 0
-10 9 0
2 -9 10 0
11 -8 0
11 -10 0
8 10 -11 0
12 6 0
12 -4 0
-6 4 -12 0
-2 -14 -15 0
2 14 -15 0
-2 14 15 0
2 -14 15 0
16 -13 0
16 -15 0
13 15 -16 0
-17 12 0
-17 16 0
-12 -16 17 0
18 7 0
18 6 0
-7 -6 -18 0
-20 18 0
-20 19 0
-18 -19 20 0
22 -15 0
22 -21 0
15 21 -22 0
24 -22 0
24 23 0
22 -23 -24 0
2 24 -25 0
-2 -24 -25 0
2 -24 25 0
-2 24 25 0
-20 -25 -26 0
20 25 -26 0
-20 25 26 0
20 -25 26 0
27 17 0
27 -26 0
-17 26 -27 0
23 21 -28 0
-23 -21 -28 0
23 -21 28 0
-23 21 28 0
29 -28 0
29 13 0
28 -13 -29 0
-30 -29 0
-30 14 0
29 -14 30 0
-31 4 0
-31 15 0
-4 -15 31 0
30 31 -32 0
-30 -31 -32 0
30 -31 32 0
-30 31 32 0
-27 -32 -33 0
27 32 -33 0
-27 32 33 0
27 -32 33 0
-11 33 -34 0
11 -33 -34 0
-11 -33 34 0
11 33 34 0
1 8 -9 2 21 34 0
-16 23 19 -15 0
-28 -16 -33 -22 17 0
-34 8 1 -7 -2 30 0
32 -29 -14 -19 0
-13 -8 -18 -31 22 24 0
32 -16 -15 -25 -10 33 0
9 34 -13 30 14 -15 12 0
34 0
